NAME: line_100_3
TYPE: TSP
COMMENT: line_100_3
DIMENSION: 100
EDGE_WEIGHT_TYPE: EUC_2D
NODE_COORD_SECTION
1 0.0 222.0
2 0.0 344.0
3 0.0 88.0
4 0.0 50.0
5 0.0 226.0
6 0.0 967.0
7 0.0 743.0
8 0.0 418.0
9 0.0 516.0
10 0.0 641.0
11 0.0 46.0
12 0.0 567.0
13 0.0 924.0
14 0.0 477.0
15 0.0 849.0
16 0.0 313.0
17 0.0 344.0
18 0.0 787.0
19 0.0 141.0
20 0.0 288.0
21 0.0 467.0
22 0.0 659.0
23 0.0 286.0
24 0.0 232.0
25 0.0 623.0
26 0.0 854.0
27 0.0 813.0
28 0.0 797.0
29 0.0 846.0
30 0.0 353.0
31 0.0 67.0
32 0.0 390.0
33 0.0 415.0
34 0.0 990.0
35 0.0 670.0
36 0.0 389.0
37 0.0 202.0
38 0.0 61.0
39 0.0 626.0
40 0.0 218.0
41 0.0 585.0
42 0.0 484.0
43 0.0 748.0
44 0.0 559.0
45 0.0 318.0
46 0.0 928.0
47 0.0 945.0
48 0.0 102.0
49 0.0 255.0
50 0.0 247.0
51 0.0 126.0
52 0.0 709.0
53 0.0 304.0
54 0.0 10.0
55 0.0 866.0
56 0.0 367.0
57 0.0 12.0
58 0.0 531.0
59 0.0 155.0
60 0.0 714.0
61 0.0 485.0
62 0.0 460.0
63 0.0 229.0
64 0.0 551.0
65 0.0 64.0
66 0.0 529.0
67 0.0 321.0
68 0.0 346.0
69 0.0 781.0
70 0.0 787.0
71 0.0 78.0
72 0.0 455.0
73 0.0 677.0
74 0.0 398.0
75 0.0 974.0
76 0.0 735.0
77 0.0 795.0
78 0.0 357.0
79 0.0 828.0
80 0.0 148.0
81 0.0 474.0
82 0.0 55.0
83 0.0 162.0
84 0.0 105.0
85 0.0 376.0
86 0.0 145.0
87 0.0 760.0
88 0.0 558.0
89 0.0 300.0
90 0.0 334.0
91 0.0 745.0
92 0.0 903.0
93 0.0 303.0
94 0.0 714.0
95 0.0 214.0
96 0.0 479.0
97 0.0 374.0
98 0.0 953.0
99 0.0 866.0
100 0.0 522.0
